
  32    1
  10

   0   0  10 2 3 4 5 6 7 9 11 12 13 
   6   5   6 30 24 22 15 14 8 
   6   7   9 29 27 26 25 22 21 16 15 10 
   7   6  12 31 28 26 25 24 23 22 21 20 19 18 17 
   1   9   8 27 26 24 23 22 21 15 10 
  10  10   8 25 24 23 22 21 16 15 10 
   5  10   7 30 27 23 22 21 15 14 
   8   8   9 28 26 25 23 21 20 19 18 17 
   5   6   4 24 23 22 10 
   8   6   4 20 19 18 17 
   5   6   4 29 20 19 17 
   1   9   2 24 21 
   8   8   2 19 17 
   2   8   1 16 
   3  10   1 17 
   8   9   1 18 
   7  10   1 32
  10   8   1 32
   3   7   1 32
   7  10   1 32
   2   6   1 32
   3   8   1 32
   3   8   1 32
   6   7   1 32
   3  10   1 32
  10  10   1 32
   9   6   1 32
  10   8   1 32
   2  10   1 32
   8   7   1 32
   3   8   1 32
   0   0   0 
